
Gurobi 13.0.1 (linux64) logging started Thu Mar 26 18:22:21 2026

Set parameter LogFile to value "logs_sparse/75B_6F_robust_gamma_0d25_theta_0d05199999999999999_2026-03-26_18h21m51s.log"
Set parameter MIPGap to value 0.005
Set parameter OptimalityTol to value 0.005
Gurobi Optimizer version 13.0.1 build v13.0.1rc0 (linux64 - "Linux Mint 22")

CPU model: 12th Gen Intel(R) Core(TM) i7-12700, instruction set [SSE2|AVX|AVX2]
Thread count: 20 physical cores, 20 logical processors, using up to 20 threads

Non-default parameters:
TimeLimit  3600
SoftMemLimit  12
MIPGap  0.005
OptimalityTol  0.005

Optimize a model with 90326 rows, 1733346 columns and 5286408 nonzeros (Max)
Model fingerprint: 0x729b9f78
Model has 1665086 linear objective coefficients
Variable types: 23346 continuous, 1710000 integer (1710000 binary)
Coefficient statistics:
  Matrix range     [3e-05, 1e+05]
  Objective range  [1e+00, 3e+03]
  Bounds range     [1e+00, 1e+05]
  RHS range        [1e-02, 1e+05]

Presolve removed 46314 rows and 1252620 columns
Presolve time: 3.27s
Presolved: 44012 rows, 480726 columns, 1506877 nonzeros
Variable types: 11328 continuous, 469398 integer (469398 binary)
Found heuristic solution: objective -3.87473e+08
Deterministic concurrent LP optimizer: primal simplex, dual simplex, and barrier
Showing barrier log only...

Root barrier log...

Ordering time: 0.95s

Barrier statistics:
 AA' NZ     : 7.621e+05
 Factor NZ  : 6.411e+06 (roughly 260 MB of memory)
 Factor Ops : 1.809e+09 (less than 1 second per iteration)
 Threads    : 18

                  Objective                Residual
Iter       Primal          Dual         Primal    Dual     Compl     Time
   0  -1.43723689e+12  1.90878813e+09  2.08e+07 1.02e+03  8.71e+06     6s
   1  -1.84990257e+11  3.08098924e+09  2.69e+06 8.80e+02  1.14e+06     6s
   2  -1.86176046e+09  2.70006152e+09  2.90e+04 2.02e+02  1.52e+04     6s
   3  -4.62248026e+07  1.64596429e+09  4.59e+03 3.08e+01  3.12e+03     6s
   4   2.39826022e+08  7.34700991e+08  7.17e+02 5.23e+00  6.71e+02     6s
   5   2.70356653e+08  4.50004463e+08  3.07e+02 1.63e+00  2.45e+02     7s
   6   2.81795296e+08  3.76759673e+08  1.57e+02 8.24e-01  1.28e+02     7s
   7   2.86512745e+08  3.31572836e+08  9.59e+01 3.55e-01  6.42e+01     7s
   8   2.89245051e+08  3.11265198e+08  6.10e+01 1.41e-01  3.39e+01     7s
   9   2.92249136e+08  2.99788673e+08  2.24e+01 3.76e-02  1.15e+01     7s
  10   2.93242356e+08  2.97281215e+08  1.01e+01 1.79e-02  5.54e+00     7s
  11   2.93751792e+08  2.95325723e+08  4.08e+00 4.89e-03  1.93e+00     7s
  12   2.94042360e+08  2.94864983e+08  1.20e+00 2.35e-03  8.87e-01     8s
  13   2.94166812e+08  2.94550498e+08  4.31e-01 9.90e-04  3.95e-01     8s
  14   2.94216959e+08  2.94462379e+08  2.74e-01 6.13e-04  2.51e-01     8s
  15   2.94302250e+08  2.94390274e+08  7.12e-02 2.50e-04  8.98e-02     8s
  16   2.94320814e+08  2.94363738e+08  2.91e-02 1.28e-04  4.38e-02     8s
  17   2.94330028e+08  2.94351458e+08  1.03e-02 7.08e-05  2.19e-02     8s
  18   2.94332227e+08  2.94346844e+08  6.33e-03 4.90e-05  1.49e-02     8s
  19   2.94333427e+08  2.94343584e+08  4.42e-03 3.33e-05  1.04e-02     8s
  20   2.94333620e+08  2.94343119e+08  4.04e-03 3.12e-05  9.69e-03     9s
  21   2.94334371e+08  2.94340194e+08  2.72e-03 1.79e-05  5.94e-03     9s
  22   2.94335377e+08  2.94339164e+08  1.09e-03 1.32e-05  3.86e-03     9s
  23   2.94335704e+08  2.94337727e+08  5.94e-04 6.78e-06  2.06e-03     9s
  24   2.94335754e+08  2.94337470e+08  5.22e-04 5.64e-06  1.75e-03     9s
  25   2.94335924e+08  2.94337053e+08  2.90e-04 3.75e-06  1.15e-03     9s
  26   2.94335987e+08  2.94336822e+08  2.04e-04 2.75e-06  8.51e-04     9s
  27   2.94336011e+08  2.94336784e+08  1.76e-04 2.59e-06  7.89e-04    10s
  28   2.94336065e+08  2.94336431e+08  1.08e-04 1.06e-06  3.73e-04    10s
  29   2.94336117e+08  2.94336287e+08  4.97e-05 4.70e-07  1.74e-04    10s
  30   2.94336125e+08  2.94336250e+08  4.14e-05 3.21e-07  1.28e-04    10s
  31   2.94336145e+08  2.94336238e+08  2.25e-05 2.71e-07  9.53e-05    10s
  32   2.94336151e+08  2.94336194e+08  1.64e-05 8.67e-08  4.36e-05    10s
  33   2.94336154e+08  2.94336182e+08  1.39e-05 4.34e-08  2.88e-05    10s
  34   2.94336156e+08  2.94336179e+08  1.22e-05 3.13e-08  2.35e-05    10s
  35   2.94336161e+08  2.94336176e+08  8.09e-06 2.00e-08  1.55e-05    11s
  36   2.94336169e+08  2.94336171e+08  1.51e-06 2.82e-09  2.67e-06    11s
  37   2.94336170e+08  2.94336170e+08  7.03e-07 9.14e-10  5.40e-07    11s
  38   2.94336170e+08  2.94336170e+08  8.61e-09 8.89e-10  7.63e-09    11s

Barrier solved model in 38 iterations and 10.93 seconds (13.68 work units)
Optimal objective 2.94336170e+08


Root crossover log...

   16144 DPushes remaining with DInf 6.0201762e-02                11s
       0 DPushes remaining with DInf 0.0000000e+00                11s

    9744 PPushes remaining with PInf 5.3576156e-02                11s
       0 PPushes remaining with PInf 0.0000000e+00                12s

  Push phase complete: Pinf 0.0000000e+00, Dinf 3.6967184e+05     12s


Root simplex log...

Iteration    Objective       Primal Inf.    Dual Inf.      Time
   25213    2.9433617e+08   0.000000e+00   3.696715e+05     12s
   34819    2.9433617e+08   0.000000e+00   1.019441e+06     15s
   40023    2.9433617e+08   0.000000e+00   0.000000e+00     17s
Crossover time: 5.93 seconds (7.58 work units)
Concurrent spin time: 0.16s

Solved with barrier

Root relaxation: objective 2.943362e+08, 40023 iterations, 12.90 seconds (14.30 work units)

    Nodes    |    Current Node    |     Objective Bounds      |     Work
 Expl Unexpl |  Obj  Depth IntInf | Incumbent    BestBd   Gap | It/Node Time

     0     0 2.9434e+08    0 7280 -3.875e+08 2.9434e+08   176%     -   19s
H    0     0                    1.308097e+08 2.9434e+08   125%     -   21s
H    0     0                    2.460983e+08 2.9434e+08  19.6%     -   22s
H    0     0                    2.531710e+08 2.9434e+08  16.3%     -   25s
H    0     0                    2.604713e+08 2.9434e+08  13.0%     -   42s
H    0     0                    2.609839e+08 2.9434e+08  12.8%     -   45s
     0     0 2.9434e+08    0 6956 2.6098e+08 2.9434e+08  12.8%     -  888s
H    0     0                    2.609846e+08 2.9434e+08  12.8%     - 1103s
H    0     0                    2.631936e+08 2.9434e+08  11.8%     - 1109s
H    0     0                    2.662985e+08 2.9434e+08  10.5%     - 1152s
H    0     0                    2.663073e+08 2.9434e+08  10.5%     - 1161s
H    0     0                    2.668898e+08 2.9434e+08  10.3%     - 1202s
H    0     0                    2.674507e+08 2.9434e+08  10.1%     - 1202s
H    0     0                    2.675873e+08 2.9434e+08  10.0%     - 1281s
H    0     0                    2.675873e+08 2.9434e+08  10.0%     - 1366s
H    0     0                    2.678491e+08 2.9434e+08  9.89%     - 1366s
H    0     0                    2.681218e+08 2.9434e+08  9.78%     - 1366s
     0     0 2.9434e+08    0 6985 2.6812e+08 2.9434e+08  9.78%     - 1530s
     0     0 2.9434e+08    0 7035 2.6812e+08 2.9434e+08  9.78%     - 2310s
H    0     0                    2.717421e+08 2.9434e+08  8.31%     - 2314s
H    0     0                    2.723636e+08 2.9434e+08  8.07%     - 2324s
H    0     0                    2.783827e+08 2.9434e+08  5.73%     - 2355s
H    0     0                    2.833957e+08 2.9434e+08  3.86%     - 2426s
H    0     0                    2.843018e+08 2.9434e+08  3.53%     - 2640s
H    0     0                    2.849452e+08 2.9434e+08  3.30%     - 2642s
H    0     0                    2.862922e+08 2.9434e+08  2.81%     - 2659s
H    0     0                    2.864737e+08 2.9434e+08  2.74%     - 2680s
H    0     0                    2.870651e+08 2.9434e+08  2.53%     - 2700s
H    0     0                    2.870752e+08 2.9434e+08  2.53%     - 2700s
H    0     0                    2.870752e+08 2.9434e+08  2.53%     - 2717s
H    0     0                    2.870753e+08 2.9434e+08  2.53%     - 2758s
H    0     0                    2.870782e+08 2.9434e+08  2.53%     - 2758s
H    0     0                    2.870816e+08 2.9434e+08  2.53%     - 2758s
H    0     0                    2.870875e+08 2.9434e+08  2.52%     - 2758s
H    0     0                    2.870876e+08 2.9434e+08  2.52%     - 2795s
H    0     0                    2.870881e+08 2.9434e+08  2.52%     - 2795s
H    0     0                    2.870886e+08 2.9434e+08  2.52%     - 2795s
H    0     0                    2.870887e+08 2.9434e+08  2.52%     - 2814s
H    0     0                    2.871673e+08 2.9434e+08  2.50%     - 2848s
H    0     0                    2.876629e+08 2.9434e+08  2.32%     - 2864s
H    0     0                    2.878525e+08 2.9434e+08  2.25%     - 2882s
H    0     0                    2.878527e+08 2.9434e+08  2.25%     - 2882s
H    0     0                    2.878817e+08 2.9434e+08  2.24%     - 2882s
H    0     0                    2.879258e+08 2.9434e+08  2.23%     - 2916s
H    0     0                    2.879438e+08 2.9434e+08  2.22%     - 2916s
     0     0 2.9434e+08    0 7077 2.8794e+08 2.9434e+08  2.22%     - 2990s
     0     0          -    0      2.8794e+08 2.9434e+08  2.22%     - 3600s

Cutting planes:
  MIR: 79
  Flow cover: 127
  Zero half: 14
  RLT: 3853
  Relax-and-lift: 59

Explored 1 nodes (1088132 simplex iterations) in 3600.07 seconds (6359.10 work units)
Thread count was 20 (of 20 available processors)

Solution count 10: 2.87944e+08 2.87926e+08 2.87882e+08 ... 2.87088e+08

Time limit reached
Best objective 2.879438318613e+08, best bound 2.943360228426e+08, gap 2.2199%
